25
2 0 5
3 1 1
4 0 3
4 2 1
5 0 2
5 2 1
5 3 5
5 4 5
6 0 3
6 5 3
7 0 5
7 1 5
7 2 4
7 3 2
7 5 3
8 3 3
8 4 4
9 0 1
9 3 5
9 5 3
9 7 2
10 0 2
10 1 1
10 4 4
10 6 1
10 9 1
11 2 5
11 3 4
11 5 5
11 6 3
11 7 1
11 8 2
11 9 4
12 2 5
12 3 2
12 4 3
12 6 2
12 7 1
12 8 1
12 11 3
13 1 5
13 7 1
13 9 1
13 10 5
14 0 1
14 1 5
14 2 2
14 3 2
14 4 3
14 6 1
14 9 4
14 10 2
14 12 4
15 1 3
15 2 2
15 4 4
15 5 5
15 6 5
15 7 4
15 8 3
15 9 4
15 10 1
15 13 1
15 14 5
16 7 4
16 10 2
16 11 3
16 14 4
16 15 5
17 1 2
17 4 2
17 5 5
17 7 4
17 8 2
17 11 3
17 12 5
17 14 2
17 15 5
17 16 1
18 4 4
18 7 3
18 8 4
18 9 1
18 11 4
18 12 2
18 14 3
18 15 5
18 16 4
18 17 5
19 0 1
19 3 2
19 6 4
19 7 3
19 9 3
19 10 3
19 11 1
19 14 2
19 16 1
19 17 4
20 0 4
20 2 3
20 4 5
20 5 1
20 6 5
20 7 1
20 10 2
20 12 4
20 16 4
20 17 5
20 18 3
21 0 4
21 1 2
21 3 3
21 4 4
21 5 1
21 7 4
21 8 1
21 9 3
21 10 4
21 13 4
21 18 5
21 19 2
21 20 5
22 1 4
22 4 1
22 6 3
22 7 3
22 9 5
22 10 4
22 15 4
22 16 1
22 19 5
22 20 4
23 1 1
23 2 2
23 3 3
23 5 3
23 7 3
23 8 2
23 9 5
23 10 5
23 12 1
23 14 4
23 17 5
23 20 3
23 22 3
24 3 4
24 5 1
24 6 3
24 7 2
24 8 5
24 9 4
24 15 4
24 16 5
24 23 4
